NAME : portcgen-23-31
COMMENT : portcgen N=23, seed=31
TYPE : TSP
DIMENSION : 23
EDGE_WEIGHT_TYPE : EUC_2D
NODE_COORD_SECTION
1 -91077 122633
2 -244659 -14008
3 -72397 -201132
4 41646 91768
5 -342127 -267052
6 91694 -208426
7 245886 -205282
8 -164659 206052
9 -34355 49022
10 -406851 -153968
11 -171084 -231181
12 -167447 -70721
13 16038 -491335
14 -132898 120105
15 -37650 57817
16 -307792 243405
17 504542 158890
18 -54255 263392
19 -8792 262306
20 197651 121131
21 194166 -239163
22 -264705 -159415
23 236326 -227072
